Minimize
  - 3 y_0 - 2 y_1 - 6 y_2 - 2 y_3 - 5 y_4 - 5 y_5 - 4 y_6 - 2 y_7 - 5 y_8
   - 5 y_9 - 5 y_10 - 6 y_11 - 4 y_13 - 6 y_14 - 3 y_15 - 2 y_16 - 5 y_17
   - 4 y_18 - 3 y_19 - 4 y_20 - 4 y_21 - 2 y_22 - 5 y_23 - 3 y_24 - 5 y_25
   - y_26 - 5 y_27 - 4 y_28 - 6 y_29 - 6 y_30 - 4 y_31 - y_32 - 5 y_33
   - 3 y_34 - 4 y_35 - 2 y_36 - y_37 - 3 y_38 - 6 y_39 - 4 y_40 - 5 y_41
   - 5 y_42 - 6 y_43 - 2 y_44 - 3 y_45 - 5 y_46 - 4 y_47 - 3 y_48 - 2 y_49
   + 190 Constant
Subject To
 c_0: y_47 = 1
 c_1_0: y_0 + y_20 + y_28 + y_40 + y_41 + y_44 >= 1
 c_1_1: y_1 + y_7 + y_19 + y_22 + y_32 + y_36 + y_37 + y_48 >= 1
 c_1_2: y_2 + y_10 + y_13 + y_33 + y_42 + y_43 >= 1
 c_1_3: y_3 + y_21 + y_26 + y_28 + y_34 + y_44 + y_47 + y_49 >= 1
 c_1_4: y_4 + y_14 + y_20 + y_29 + y_39 + y_41 + y_46 >= 1
 c_1_5: y_5 + y_9 + y_10 + y_13 + y_18 + y_21 + y_23 + y_25 + y_30 + y_43
   + y_47 >= 1
 c_1_6: y_6 + y_8 + y_31 >= 1
 c_1_7: y_1 + y_7 + y_12 + y_16 + y_19 + y_24 + y_32 + y_38 + y_48 + y_49
   >= 1
 c_1_8: y_6 + y_8 + y_11 + y_17 + y_27 + y_31 + y_45 >= 1
 c_1_9: y_5 + y_9 + y_10 + y_13 + y_23 + y_43 + y_47 >= 1
 c_1_10: y_2 + y_5 + y_9 + y_10 + y_13 + y_21 + y_23 + y_33 + y_43 + y_47
   >= 1
 c_1_11: y_8 + y_11 + y_17 + y_27 + y_31 >= 1
 c_1_12: y_7 + y_12 + y_16 + y_26 + y_32 + y_36 + y_37 + y_49 >= 1
 c_1_13: y_2 + y_5 + y_9 + y_10 + y_13 + y_21 + y_23 + y_33 + y_43 + y_47
   >= 1
 c_1_14: y_4 + y_14 + y_29 + y_39 + y_41 + y_46 >= 1
 c_1_15: y_15 + y_26 + y_33 + y_34 + y_49 >= 1
 c_1_16: y_7 + y_12 + y_16 + y_19 + y_24 + y_26 + y_32 + y_34 + y_38 + y_48
   + y_49 >= 1
 c_1_17: y_8 + y_11 + y_17 + y_27 + y_31 >= 1
 c_1_18: y_5 + y_18 + y_21 + y_23 + y_25 + y_28 + y_30 + y_40 + y_47 >= 1
 c_1_19: y_1 + y_7 + y_16 + y_19 + y_24 + y_32 + y_48 >= 1
 c_1_20: y_0 + y_4 + y_20 + y_35 >= 1
 c_1_21: y_3 + y_5 + y_10 + y_13 + y_18 + y_21 + y_23 + y_25 + y_28 + y_44
   + y_47 >= 1
 c_1_22: y_1 + y_22 + y_36 + y_37 >= 1
 c_1_23: y_5 + y_9 + y_10 + y_13 + y_18 + y_21 + y_23 + y_25 + y_30 + y_43
   + y_47 >= 1
 c_1_24: y_7 + y_16 + y_19 + y_24 + y_32 + y_38 >= 1
 c_1_25: y_5 + y_18 + y_21 + y_23 + y_25 + y_28 + y_30 + y_47 >= 1
 c_1_26: y_3 + y_12 + y_15 + y_16 + y_26 + y_34 + y_44 + y_49 >= 1
 c_1_27: y_8 + y_11 + y_17 + y_27 + y_31 >= 1
 c_1_28: y_0 + y_3 + y_18 + y_21 + y_25 + y_28 + y_40 + y_41 + y_44 + y_47
   >= 1
 c_1_29: y_4 + y_14 + y_29 + y_39 >= 1
 c_1_30: y_5 + y_18 + y_23 + y_25 + y_30 >= 1
 c_1_31: y_6 + y_8 + y_11 + y_17 + y_27 + y_31 + y_45 >= 1
 c_1_32: y_1 + y_7 + y_12 + y_16 + y_19 + y_24 + y_32 + y_36 + y_37 + y_48
   + y_49 >= 1
 c_1_33: y_2 + y_10 + y_13 + y_15 + y_33 + y_42 >= 1
 c_1_34: y_3 + y_15 + y_16 + y_26 + y_34 + y_49 >= 1
 c_1_35: y_20 + y_35 + y_45 + y_46 >= 1
 c_1_36: y_1 + y_12 + y_22 + y_32 + y_36 + y_37 + y_48 >= 1
 c_1_37: y_1 + y_12 + y_22 + y_32 + y_36 + y_37 + y_45 >= 1
 c_1_38: y_7 + y_16 + y_24 + y_38 >= 1
 c_1_39: y_4 + y_14 + y_29 + y_39 + y_46 >= 1
 c_1_40: y_0 + y_18 + y_28 + y_40 + y_41 >= 1
 c_1_41: y_0 + y_4 + y_14 + y_28 + y_40 + y_41 >= 1
 c_1_42: y_2 + y_33 + y_42 >= 1
 c_1_43: y_2 + y_5 + y_9 + y_10 + y_13 + y_23 + y_43 + y_47 >= 1
 c_1_44: y_0 + y_3 + y_21 + y_26 + y_28 + y_44 + y_47 + y_49 >= 1
 c_1_45: y_8 + y_31 + y_35 + y_37 + y_45 >= 1
 c_1_46: y_4 + y_14 + y_35 + y_39 + y_46 >= 1
 c_1_47: y_3 + y_5 + y_9 + y_10 + y_13 + y_18 + y_21 + y_23 + y_25 + y_28
   + y_43 + y_44 + y_47 >= 1
 c_1_48: y_1 + y_7 + y_16 + y_19 + y_32 + y_36 + y_48 >= 1
 c_1_49: y_3 + y_7 + y_12 + y_15 + y_16 + y_26 + y_32 + y_34 + y_44 + y_49
   >= 1
Bounds
 Constant = 1
Binaries
 y_0 y_1 y_2 y_3 y_4 y_5 y_6 y_7 y_8 y_9 y_10 y_11 y_12 y_13 y_14 y_15 y_16
 y_17 y_18 y_19 y_20 y_21 y_22 y_23 y_24 y_25 y_26 y_27 y_28 y_29 y_30 y_31
 y_32 y_33 y_34 y_35 y_36 y_37 y_38 y_39 y_40 y_41 y_42 y_43 y_44 y_45 y_46
 y_47 y_48 y_49
End
